This is Ipopt version 3.14.16, running with linear solver MUMPS 5.7.3.

Number of nonzeros in equality constraint Jacobian...:        0
Number of nonzeros in inequality constraint Jacobian.:     1188
Number of nonzeros in Lagrangian Hessian.............:        0

Total number of variables............................:       27
                     variables with only lower bounds:        0
                variables with lower and upper bounds:       27
                     variables with only upper bounds:        0
Total number of equality constraints.................:        0
Total number of inequality constraints...............:       44
        inequality constraints with only lower bounds:        0
   inequality constraints with lower and upper bounds:        0
        inequality constraints with only upper bounds:       44

iter    objective    inf_pr   inf_du lg(mu)  ||d||  lg(rg) alpha_du alpha_pr  ls
   0  2.8576972e-03 1.95e+00 1.00e+00   0.0 0.00e+00    -  0.00e+00 0.00e+00   0
   1  2.9760459e-03 0.00e+00 2.06e-01  -5.8 1.68e-02    -  7.96e-01 1.00e+00h  1
   2  2.9760353e-03 0.00e+00 2.63e-03  -6.5 2.60e-04    -  9.87e-01 1.00e+00h  1
   3  2.9837928e-03 0.00e+00 8.16e-04  -4.5 2.11e-02    -  9.91e-01 1.00e+00h  1
   4  3.1060372e-03 2.41e-03 9.04e-03  -4.3 1.12e+00    -  4.10e-01 1.00e+00h  1
   5  3.2659842e-03 1.01e-05 2.97e-03  -4.3 1.02e+00    -  1.00e+00 1.00e+00h  1
   6  3.3030715e-03 0.00e+00 8.18e-03  -4.3 9.52e-01    -  5.71e-01 1.00e+00h  1
   7  3.4776841e-03 0.00e+00 3.28e-03  -4.3 1.67e+00    -  9.59e-01 1.00e+00h  1
   8  3.5982054e-03 0.00e+00 2.65e-03  -4.3 2.35e+00    -  8.61e-01 6.71e-01H  1
   9  3.6170038e-03 0.00e+00 6.63e-04  -4.3 8.46e-01    -  1.00e+00 1.00e+00h  1
iter    objective    inf_pr   inf_du lg(mu)  ||d||  lg(rg) alpha_du alpha_pr  ls
  10  3.6036018e-03 0.00e+00 4.16e-04  -4.3 2.65e-01    -  1.00e+00 1.00e+00h  1
  11  3.6098313e-03 0.00e+00 7.68e-05  -4.3 1.76e-02    -  1.00e+00 1.00e+00h  1
  12  3.2795497e-03 3.04e-01 7.07e-03  -6.5 4.77e+00    -  6.76e-01 5.49e-01h  1
  13  2.9395135e-03 1.64e+00 4.00e-03  -6.5 1.85e+00    -  4.64e-01 8.58e-01h  1
  14  2.9223505e-03 0.00e+00 3.62e-04  -5.9 7.52e-01    -  1.00e+00 1.00e+00h  1
  15  2.9130868e-03 0.00e+00 1.96e-03  -5.9 5.81e-01    -  1.00e+00 1.00e+00H  1
  16  2.9241932e-03 2.99e-02 8.50e-04  -5.6 5.90e-01    -  1.00e+00 1.00e+00h  1
  17  2.9209180e-03 0.00e+00 1.18e-03  -5.7 4.91e-01    -  1.00e+00 1.00e+00h  1
  18  2.9106130e-03 1.12e-03 4.29e-04  -5.7 3.87e-01    -  1.00e+00 1.00e+00h  1
  19  2.8895814e-03 0.00e+00 6.11e-04  -6.0 2.88e-01    -  1.00e+00 1.00e+00h  1
iter    objective    inf_pr   inf_du lg(mu)  ||d||  lg(rg) alpha_du alpha_pr  ls
  20  2.8765341e-03 0.00e+00 1.05e-03  -6.6 7.40e-01    -  1.00e+00 1.00e+00h  1
  21  2.8942023e-03 5.61e-03 8.03e-04  -6.0 3.60e-01    -  1.00e+00 1.00e+00h  1
  22  2.8878036e-03 0.00e+00 3.33e-04  -6.1 3.39e-01    -  4.60e-01 6.08e-01H  1
  23  2.8975275e-03 0.00e+00 1.55e-03  -6.1 9.26e-02    -  5.50e-01 7.49e-01H  1
  24  2.8848308e-03 0.00e+00 4.15e-04  -6.1 1.02e-01    -  3.88e-01 1.00e+00f  1
  25  2.9155511e-03 1.53e-02 5.00e-04  -5.6 1.82e+00    -  9.99e-01 6.40e-01h  1
  26  2.9107083e-03 7.14e-04 5.83e-04  -5.7 5.68e-01    -  3.89e-01 1.00e+00h  1
  27  2.9126068e-03 0.00e+00 2.49e-04  -5.7 8.63e-01    -  1.00e+00 5.00e-01h  2
  28  2.9135142e-03 0.00e+00 3.17e-04  -5.7 2.53e-01    -  1.00e+00 1.00e+00h  1
  29  2.9123342e-03 1.36e-03 2.81e-04  -5.7 3.27e-01    -  1.00e+00 1.00e+00h  1
iter    objective    inf_pr   inf_du lg(mu)  ||d||  lg(rg) alpha_du alpha_pr  ls
  30  2.8788667e-03 2.19e-02 2.31e-04  -6.2 8.93e-01    -  1.00e+00 1.00e+00h  1
  31  2.8810731e-03 0.00e+00 1.14e-03  -6.3 1.47e-01    -  1.00e+00 1.00e+00h  1
  32  2.8769271e-03 0.00e+00 5.81e-04  -6.3 2.95e-01    -  1.00e+00 1.00e+00h  1
  33  2.8697744e-03 1.81e-03 7.39e-04 -11.0 7.72e-01    -  3.04e-01 5.55e-01h  1
  34  2.8683327e-03 0.00e+00 5.80e-04  -7.1 1.22e-01    -  3.16e-01 1.58e-01H  1
  35  2.8661839e-03 3.48e-03 6.35e-04  -7.6 5.33e-01    -  1.70e-02 3.66e-01h  2
  36  2.8646671e-03 8.46e-03 4.93e-04 -11.0 1.57e-01    -  1.44e-01 3.73e-01h  1
  37  2.8643544e-03 8.40e-03 4.49e-04  -8.9 7.75e-01    -  7.72e-02 9.97e-03h  1
  38  2.8630474e-03 1.00e-02 2.75e-04 -11.0 6.03e-01    -  8.26e-04 9.64e-02h  2
  39  2.8627660e-03 1.10e-02 2.00e-04 -11.0 7.91e-01    -  3.25e-03 3.82e-02h  2
iter    objective    inf_pr   inf_du lg(mu)  ||d||  lg(rg) alpha_du alpha_pr  ls
  40  2.8639359e-03 1.81e-02 7.46e-04 -11.0 1.04e-01    -  1.61e-02 7.72e-01h  1
  41  2.8630437e-03 1.24e-02 7.13e-04 -11.0 4.56e-01    -  1.06e-03 5.79e-02h  1
  42  2.8622783e-03 2.39e-02 4.48e-04  -7.0 9.15e-01    -  2.60e-02 7.83e-02h  2
  43  2.8619176e-03 1.40e-02 5.56e-04 -11.0 6.40e-02    -  1.60e-01 6.49e-01h  1
  44  2.8615672e-03 1.38e-02 4.36e-04 -11.0 4.65e-01    -  2.57e-03 2.52e-02h  1
  45  2.8610494e-03 1.20e-02 3.41e-04 -11.0 2.83e-01    -  1.44e-03 1.81e-01h  2
  46  2.8655349e-03 2.28e-02 5.49e-04  -6.4 2.49e-01    -  2.89e-01 3.74e-01h  1
  47  2.8654832e-03 9.57e-03 2.93e-04  -6.8 1.66e-01    -  2.55e-01 3.09e-01H  1
  48  2.8656332e-03 6.91e-03 4.00e-04  -6.8 5.86e-02    -  4.55e-01 3.81e-01h  1
  49  2.8651991e-03 1.18e-02 2.18e-04  -6.8 1.04e-01    -  4.01e-01 1.00e+00f  1
iter    objective    inf_pr   inf_du lg(mu)  ||d||  lg(rg) alpha_du alpha_pr  ls
  50  2.8664687e-03 6.29e-03 6.81e-04  -6.9 1.11e-01    -  4.43e-01 4.70e-01H  1
  51  2.8665205e-03 3.54e-03 6.38e-04  -6.9 1.54e-01    -  1.96e-01 3.45e-01h  1
  52  2.8651382e-03 1.24e-02 3.63e-04  -6.9 3.55e-02    -  1.65e-01 2.67e-01f  2
  53  2.8649805e-03 0.00e+00 2.70e-04  -6.9 4.98e-02    -  1.00e+00 1.00e+00h  1
  54  2.8650698e-03 0.00e+00 2.73e-04  -6.5 9.33e-02    -  6.09e-01 4.69e-02h  4
  55  2.8647958e-03 3.38e-03 3.64e-04  -7.3 6.27e-02    -  9.99e-01 5.12e-01H  1
  56  2.8670606e-03 0.00e+00 4.19e-04  -6.6 5.46e-02    -  1.00e+00 1.00e+00h  1
  57  2.8662373e-03 4.92e-03 1.78e-04  -6.7 5.70e-02    -  7.56e-01 1.00e+00h  1
  58  2.8659912e-03 0.00e+00 1.97e-04  -6.7 3.92e-02    -  1.00e+00 1.00e+00h  1
  59  2.8954576e-03 3.17e-03 2.22e-03  -6.7 1.48e-01    -  5.48e-01 9.76e-01H  1
iter    objective    inf_pr   inf_du lg(mu)  ||d||  lg(rg) alpha_du alpha_pr  ls
  60  2.8654344e-03 2.31e-02 2.06e-04  -6.7 1.51e-01    -  7.50e-01 1.00e+00f  1
  61  2.8653837e-03 2.21e-02 2.06e-04  -6.7 4.58e-02    -  2.98e-01 6.78e-02h  3
  62  2.8660306e-03 0.00e+00 5.77e-05  -6.7 1.84e-02    -  1.00e+00 1.00e+00h  1
  63  2.8646307e-03 0.00e+00 3.56e-04  -7.2 4.41e-02    -  1.00e+00 1.00e+00h  1
  64  2.8619571e-03 5.64e-04 1.98e-04  -7.2 7.98e-02    -  1.00e+00 1.00e+00h  1
  65  2.8749556e-03 0.00e+00 2.82e-04  -6.3 6.12e-01    -  1.00e+00 9.30e-01h  1
  66  2.8733125e-03 0.00e+00 2.40e-04  -6.4 3.82e-02    -  1.00e+00 1.00e+00h  1
  67  2.8725138e-03 1.91e-03 8.78e-05  -6.4 6.50e-02    -  1.00e+00 5.00e-01h  2
  68  2.8743834e-03 0.00e+00 6.67e-04  -6.4 1.77e-02    -  1.00e+00 1.00e+00h  1
  69  2.8761288e-03 0.00e+00 7.85e-04  -6.4 2.57e-02    -  9.02e-01 1.00e+00H  1
iter    objective    inf_pr   inf_du lg(mu)  ||d||  lg(rg) alpha_du alpha_pr  ls
  70  2.8740676e-03 0.00e+00 5.89e-04  -6.4 8.38e-02    -  8.98e-01 2.50e-01h  3
  71  2.8775188e-03 0.00e+00 1.12e-03  -6.4 1.77e-01    -  9.88e-01 8.03e-01H  1
  72  2.8766320e-03 0.00e+00 1.00e-03  -6.4 3.74e-01    -  2.58e-01 6.14e-02f  4
  73  2.8728859e-03 0.00e+00 2.43e-04  -6.4 2.09e-01    -  7.87e-01 4.28e-01h  2
  74  2.8728139e-03 0.00e+00 1.35e-04  -6.4 4.72e-02    -  1.00e+00 2.99e-01H  1
  75  2.8685204e-03 0.00e+00 1.62e-04  -6.9 5.72e-02    -  1.00e+00 1.00e+00f  1
  76  2.8639782e-03 1.37e-02 6.30e-04  -7.1 1.11e+00    -  5.19e-01 5.05e-01h  1
  77  2.9052463e-03 1.21e-02 2.06e-03  -7.1 5.34e-02    -  2.00e-01 6.83e-01H  1
  78  2.8630641e-03 2.51e-02 4.35e-04  -7.1 5.28e-02    -  4.29e-02 1.00e+00f  1
  79  2.8642321e-03 6.28e-03 5.61e-04  -7.1 1.13e-02    -  1.00e+00 1.00e+00h  1
iter    objective    inf_pr   inf_du lg(mu)  ||d||  lg(rg) alpha_du alpha_pr  ls
  80  2.8627134e-03 0.00e+00 5.90e-05  -7.1 4.16e-02    -  1.00e+00 1.00e+00h  1
  81  2.8661287e-03 0.00e+00 8.22e-04  -7.3 5.63e-02    -  4.71e-01 7.58e-01H  1
  82  2.8621118e-03 5.36e-03 1.53e-04  -7.3 1.31e-02    -  1.00e+00 1.00e+00h  1
  83  2.8631614e-03 8.28e-05 3.97e-04  -7.3 4.64e-03    -  3.88e-01 1.00e+00h  1
  84  2.8619131e-03 4.26e-04 1.79e-05  -7.5 5.93e-03    -  1.00e+00 1.00e+00h  1
  85  2.8614643e-03 0.00e+00 3.91e-05  -8.8 1.63e-02    -  1.00e+00 1.00e+00h  1
  86  2.8615160e-03 6.42e-04 1.30e-04  -7.4 5.70e-01    -  1.00e+00 5.43e-02h  2
  87  2.8615346e-03 0.00e+00 2.21e-04  -7.5 1.03e-01    -  1.00e+00 1.00e+00h  1
  88  2.8613813e-03 3.53e-05 1.88e-04  -7.5 3.70e-01    -  1.84e-01 5.54e-02h  2
  89  2.8617203e-03 2.19e-04 2.91e-04  -7.1 1.07e-01    -  1.00e+00 1.54e-01h  3
iter    objective    inf_pr   inf_du lg(mu)  ||d||  lg(rg) alpha_du alpha_pr  ls
  90  2.8618154e-03 0.00e+00 1.13e-04  -7.3 8.41e-02    -  4.87e-01 9.67e-01h  1
  91  2.8620314e-03 5.47e-04 2.11e-04  -7.3 6.64e-02    -  7.11e-01 1.91e-01f  3
  92  2.8620535e-03 0.00e+00 1.72e-04  -7.3 3.64e-02    -  1.00e+00 1.00e+00h  1
  93  2.8618520e-03 0.00e+00 1.49e-04  -7.3 1.49e-01    -  1.72e-01 1.39e-01h  3
  94  2.8622669e-03 0.00e+00 3.09e-04  -7.3 5.33e-02    -  4.71e-01 1.00e+00H  1
  95  2.8619083e-03 0.00e+00 2.21e-04  -7.3 2.48e-01    -  9.52e-01 2.12e-01h  2
  96  2.8618642e-03 0.00e+00 1.25e-04  -7.3 4.87e-02    -  5.31e-01 4.60e-01h  2
  97  2.8617435e-03 0.00e+00 1.72e-04  -7.3 3.34e-02    -  2.90e-01 1.64e-01h  2
  98  2.8617631e-03 0.00e+00 1.76e-04  -7.3 7.30e-03    -  1.00e+00 1.00e+00h  1
  99  2.8616985e-03 0.00e+00 1.04e-04  -7.3 7.97e-03    -  1.00e+00 3.44e-01h  2
iter    objective    inf_pr   inf_du lg(mu)  ||d||  lg(rg) alpha_du alpha_pr  ls
 100  2.8616230e-03 0.00e+00 1.29e-05  -7.3 1.72e-02    -  1.00e+00 1.00e+00h  1
 101  2.8617567e-03 0.00e+00 1.18e-04  -7.3 2.45e-02    -  1.00e+00 1.00e+00H  1
 102  2.8607854e-03 2.65e-06 1.70e-04  -8.2 1.34e-02    -  1.00e+00 1.00e+00h  1
 103  2.8607112e-03 4.47e-04 1.26e-04  -7.8 1.25e-01    -  1.00e+00 2.50e-01h  3
 104  2.8930877e-03 5.78e-02 1.38e-03  -6.2 6.66e-01    -  7.71e-01 9.42e-01h  1
 105  2.8698538e-03 1.28e-02 3.44e-04  -6.3 1.23e-01    -  6.24e-01 1.00e+00h  1
 106  2.8739392e-03 1.04e-03 3.27e-04  -6.3 3.08e-01    -  8.40e-01 1.00e+00h  1
 107  2.8748315e-03 0.00e+00 1.42e-04  -6.3 6.22e-01    -  1.00e+00 5.00e-01h  2
 108  2.8745668e-03 0.00e+00 2.45e-04  -6.3 5.53e-01    -  1.00e+00 6.27e-02h  3
 109  2.8749713e-03 0.00e+00 1.13e-04  -6.3 2.57e-01    -  1.00e+00 1.00e+00h  1
iter    objective    inf_pr   inf_du lg(mu)  ||d||  lg(rg) alpha_du alpha_pr  ls
 110  2.8750185e-03 0.00e+00 1.98e-04  -6.3 1.17e-01    -  1.00e+00 1.25e-01h  4
 111  2.8752345e-03 0.00e+00 3.01e-04  -6.3 1.37e-01    -  1.00e+00 1.00e+00h  1
 112  2.8750898e-03 0.00e+00 2.09e-04  -6.3 4.26e-02    -  8.57e-01 8.37e-02h  4
 113  2.8748266e-03 0.00e+00 2.97e-05  -6.3 1.21e-01    -  1.00e+00 1.00e+00h  1
 114  2.8751664e-03 0.00e+00 1.81e-04  -6.3 8.04e-02    -  1.00e+00 1.00e+00h  1
 115  2.8749600e-03 0.00e+00 1.70e-04  -6.3 4.12e-02    -  1.00e+00 1.00e+00H  1
 116  2.8750021e-03 0.00e+00 2.07e-04  -6.3 1.30e-02    -  1.00e+00 5.00e-01h  2
 117  2.8756890e-03 0.00e+00 2.85e-04  -6.3 2.26e-01    -  1.00e+00 1.00e+00H  1
 118  2.8750292e-03 0.00e+00 1.93e-04  -6.3 2.26e-01    -  1.00e+00 1.00e+00H  1
 119  2.8749154e-03 0.00e+00 3.07e-04  -6.3 1.29e-01    -  7.22e-01 3.70e-02h  5
iter    objective    inf_pr   inf_du lg(mu)  ||d||  lg(rg) alpha_du alpha_pr  ls
 120  2.8750250e-03 0.00e+00 6.48e-05  -6.3 1.44e-02    -  1.00e+00 1.00e+00h  1
 121  2.8749203e-03 0.00e+00 3.58e-05  -6.3 3.58e-02    -  1.00e+00 1.00e+00h  1
 122  2.8748267e-03 0.00e+00 9.73e-05  -6.3 3.13e-02    -  1.00e+00 1.00e+00h  1
 123  2.8748686e-03 0.00e+00 1.08e-04  -6.3 3.74e-02    -  1.00e+00 1.00e+00h  1
 124  2.8800513e-03 0.00e+00 8.22e-04  -6.3 6.67e-02    -  1.00e+00 1.00e+00H  1
 125  2.8715787e-03 0.00e+00 4.15e-04  -6.9 7.27e-02    -  1.00e+00 1.00e+00h  1
 126  2.8713078e-03 0.00e+00 2.61e-04  -7.0 4.95e-01    -  1.36e-01 3.91e-02h  3
 127  2.8709627e-03 0.00e+00 1.69e-04  -7.0 1.06e-01    -  1.64e-01 4.25e-02h  2
 128  2.8706992e-03 0.00e+00 5.53e-05  -7.0 3.85e-03    -  1.00e+00 1.00e+00h  1
 129  2.8698594e-03 0.00e+00 1.12e-04  -7.0 1.15e-01    -  1.00e+00 1.00e+00h  1
iter    objective    inf_pr   inf_du lg(mu)  ||d||  lg(rg) alpha_du alpha_pr  ls
 130  2.8682515e-03 9.69e-04 6.50e-04  -7.0 1.66e+00    -  2.60e-01 1.67e-01h  2
 131  2.8625191e-03 2.04e-03 2.87e-04  -7.0 5.30e-01    -  8.66e-01 5.20e-01h  1
 132  2.8628171e-03 1.96e-03 4.18e-04  -7.0 9.38e-02    -  1.12e-01 5.31e-02H  1
 133  2.8624560e-03 9.84e-04 1.34e-03  -7.0 2.61e-01    -  6.67e-01 8.05e-02f  1
 134  2.8630808e-03 1.62e-03 1.07e-03  -7.0 3.43e-01    -  1.84e-01 1.15e-01h  2
 135  2.8639016e-03 4.96e-03 4.46e-04  -7.0 6.73e-02    -  6.18e-01 1.00e+00h  1
 136  2.8638680e-03 5.04e-03 2.96e-04  -7.0 1.85e-01    -  2.85e-01 5.58e-02h  4
 137  2.8636175e-03 0.00e+00 3.19e-04  -7.0 5.76e-02    -  3.15e-01 8.97e-01H  1
 138  2.8699478e-03 0.00e+00 1.17e-03  -7.0 4.51e-02    -  9.30e-01 1.00e+00H  1
 139  2.8686362e-03 0.00e+00 1.04e-03  -7.0 5.75e-02    -  9.51e-01 9.03e-02h  4
iter    objective    inf_pr   inf_du lg(mu)  ||d||  lg(rg) alpha_du alpha_pr  ls
 140  2.8655335e-03 0.00e+00 5.59e-04  -7.0 6.84e-02    -  4.56e-01 3.61e-01h  1
 141  2.8642697e-03 0.00e+00 4.85e-04  -7.0 3.73e-02    -  8.45e-02 3.88e-01F  1
 142  2.8663442e-03 0.00e+00 8.10e-04  -7.0 9.44e-03    -  7.32e-01 1.00e+00H  1
 143  2.8632497e-03 2.88e-03 4.84e-05  -7.0 2.44e-02    -  1.00e+00 1.00e+00h  1
 144  2.8631866e-03 0.00e+00 7.42e-05  -7.1 4.15e-03    -  1.00e+00 1.00e+00h  1
 145  2.8628696e-03 0.00e+00 8.54e-05  -7.1 1.61e-02    -  1.00e+00 1.00e+00h  1
 146  2.8642446e-03 0.00e+00 4.07e-04  -7.1 4.69e-02    -  8.98e-01 1.00e+00H  1
 147  2.8625899e-03 1.23e-03 1.03e-05  -7.1 4.03e-02    -  9.22e-01 1.00e+00h  1
 148  2.8626583e-03 3.52e-04 6.05e-05  -7.1 4.16e-03    -  1.00e+00 2.50e-01h  3
 149  2.8627120e-03 0.00e+00 8.38e-06  -7.1 1.48e-03    -  1.00e+00 1.00e+00h  1
iter    objective    inf_pr   inf_du lg(mu)  ||d||  lg(rg) alpha_du alpha_pr  ls
 150  2.8627088e-03 0.00e+00 9.69e-06  -7.1 5.52e-04    -  1.00e+00 1.00e+00h  1
 151  2.8613939e-03 0.00e+00 4.96e-05  -7.7 2.08e-02    -  9.98e-01 1.00e+00h  1
 152  2.8620605e-03 8.74e-04 2.06e-04  -7.3 1.94e-01    -  9.01e-01 1.00e+00h  1
 153  2.8619796e-03 0.00e+00 1.90e-04  -7.4 2.66e-01    -  6.54e-01 9.09e-02h  3
 154  2.8632860e-03 4.84e-04 4.42e-04  -7.4 2.00e-02    -  5.71e-01 1.00e+00h  1
 155  2.8614818e-03 1.89e-03 7.30e-05  -7.4 8.60e-02    -  1.00e+00 1.00e+00h  1
 156  2.8623971e-03 8.19e-04 4.98e-04  -7.4 3.79e-01    -  6.46e-01 6.03e-01H  1
 157  2.8667273e-03 0.00e+00 9.07e-04  -7.4 1.47e-01    -  9.09e-01 1.00e+00H  1
 158  2.8655745e-03 2.37e-04 8.59e-04  -7.4 2.48e-01    -  8.12e-02 4.41e-02h  3
 159  2.8612461e-03 1.06e-02 1.59e-04  -7.4 1.20e-01    -  1.00e+00 1.00e+00h  1
iter    objective    inf_pr   inf_du lg(mu)  ||d||  lg(rg) alpha_du alpha_pr  ls
 160  2.8610443e-03 1.12e-02 1.39e-04  -7.4 6.67e-02    -  5.99e-02 2.68e-02h  3
 161  2.8613301e-03 0.00e+00 3.69e-05  -7.4 3.09e-02    -  1.00e+00 1.00e+00h  1
 162  2.8624127e-03 0.00e+00 3.21e-04  -7.4 3.91e-02    -  8.57e-01 1.00e+00h  1
 163  2.8615554e-03 0.00e+00 1.35e-04  -7.4 1.59e-02    -  1.00e+00 1.00e+00H  1
 164  2.8614223e-03 0.00e+00 8.56e-05  -7.4 5.46e-02    -  3.67e-01 3.53e-01h  2
 165  2.8646525e-03 0.00e+00 6.23e-04  -7.2 1.01e-02    -  1.00e+00 1.00e+00H  1
 166  2.8615800e-03 1.76e-03 6.36e-05  -7.3 5.82e-03    -  4.06e-01 1.00e+00h  1
 167  2.8620012e-03 0.00e+00 2.20e-04  -7.3 7.93e-03    -  1.00e+00 1.00e+00h  1
 168  2.8616936e-03 0.00e+00 3.31e-05  -7.3 5.68e-03    -  1.00e+00 1.00e+00h  1
 169  2.8617039e-03 0.00e+00 6.55e-05  -7.3 5.79e-03    -  1.00e+00 1.00e+00h  1
iter    objective    inf_pr   inf_du lg(mu)  ||d||  lg(rg) alpha_du alpha_pr  ls
 170  2.8624245e-03 0.00e+00 8.13e-05  -7.3 4.08e-03    -  1.00e+00 1.00e+00H  1
 171  2.8612676e-03 9.27e-04 3.21e-05  -7.7 4.44e-03    -  1.00e+00 1.00e+00h  1
 172  2.8613087e-03 0.00e+00 1.58e-04  -7.8 5.69e-03    -  1.00e+00 1.00e+00h  1
 173  2.8610236e-03 1.44e-04 1.47e-04  -8.1 5.11e-03    -  1.00e+00 1.00e+00h  1
 174  2.8628530e-03 0.00e+00 1.68e-04  -7.4 7.45e-03    -  1.00e+00 1.00e+00H  1
 175  2.8618840e-03 0.00e+00 8.04e-05  -7.1 1.15e-02    -  1.00e+00 1.00e+00h  1
 176  2.8617857e-03 0.00e+00 9.57e-05  -7.2 4.29e-03    -  1.00e+00 1.00e+00h  1
 177  2.8620078e-03 0.00e+00 5.30e-05  -7.2 6.45e-03    -  1.00e+00 1.00e+00H  1
 178  2.8612706e-03 3.52e-05 9.50e-05  -7.6 8.50e-03    -  1.00e+00 1.00e+00h  1
 179  2.8625952e-03 0.00e+00 5.81e-04  -7.7 9.36e-03    -  1.00e+00 1.00e+00H  1
iter    objective    inf_pr   inf_du lg(mu)  ||d||  lg(rg) alpha_du alpha_pr  ls
 180  2.8610337e-03 7.38e-04 9.70e-05  -7.7 3.97e-03    -  4.60e-01 1.00e+00h  1
 181  2.8610987e-03 1.25e-04 1.38e-04  -7.7 1.97e-03    -  1.00e+00 1.00e+00h  1
 182  2.8610051e-03 0.00e+00 1.84e-05  -7.7 1.16e-03    -  1.00e+00 1.00e+00h  1
 183  2.8606784e-03 0.00e+00 7.33e-05  -8.7 4.76e-03    -  1.00e+00 1.00e+00h  1
 184  2.8623877e-03 0.00e+00 4.40e-04  -7.8 6.90e-03    -  1.00e+00 1.00e+00H  1
 185  2.8606914e-03 1.86e-03 2.01e-05  -7.9 6.13e-03    -  1.00e+00 1.00e+00h  1
 186  2.8607463e-03 0.00e+00 5.58e-06  -7.9 2.97e-04    -  1.00e+00 1.00e+00h  1
 187  2.8603855e-03 0.00e+00 1.67e-05  -9.0 7.92e-03    -  1.00e+00 1.00e+00h  1
 188  2.8624525e-03 0.00e+00 4.98e-04  -7.7 2.44e-02    -  1.00e+00 1.00e+00H  1
 189  2.8608941e-03 5.82e-04 1.11e-04  -7.8 1.08e-02    -  1.00e+00 1.00e+00h  1
iter    objective    inf_pr   inf_du lg(mu)  ||d||  lg(rg) alpha_du alpha_pr  ls
 190  2.8607836e-03 7.45e-04 8.64e-05  -7.8 1.36e-02    -  7.77e-01 2.81e-01h  2
 191  2.8607642e-03 0.00e+00 4.90e-05  -7.8 6.87e-04    -  1.00e+00 1.00e+00h  1
 192  2.8607556e-03 0.00e+00 9.89e-06  -7.8 1.02e-03    -  1.00e+00 1.00e+00h  1
 193  2.8607511e-03 0.00e+00 2.14e-05  -7.8 9.95e-04    -  1.00e+00 1.00e+00h  1
 194  2.8607789e-03 0.00e+00 1.40e-05  -7.8 1.81e-03    -  1.00e+00 1.00e+00H  1
 195  2.8604967e-03 6.68e-05 3.91e-05  -8.7 5.24e-03    -  1.00e+00 1.00e+00h  1
 196  2.8604854e-03 0.00e+00 5.81e-05  -8.7 1.82e-02    -  2.64e-01 1.59e-01h  3
 197  2.8604756e-03 0.00e+00 5.21e-05  -8.7 3.35e-03    -  1.00e+00 1.00e+00H  1
 198  2.8604014e-03 2.37e-05 9.11e-05  -9.3 2.84e-03    -  1.00e+00 1.00e+00h  1
 199  2.8603063e-03 0.00e+00 1.48e-05  -9.4 2.12e-03    -  6.53e-01 1.00e+00h  1
iter    objective    inf_pr   inf_du lg(mu)  ||d||  lg(rg) alpha_du alpha_pr  ls
 200  2.8602936e-03 8.61e-06 1.20e-05 -10.1 1.05e-03    -  1.00e+00 1.00e+00h  1
 201  2.8604004e-03 1.50e-04 1.17e-04  -8.8 1.22e-02    -  9.74e-01 4.29e-01h  2
 202  2.8606365e-03 0.00e+00 2.12e-04  -9.0 2.37e-03    -  1.00e+00 1.00e+00h  1
 203  2.8603142e-03 1.39e-04 1.19e-05  -9.0 4.03e-03    -  9.36e-01 1.00e+00h  1
 204  2.8603198e-03 0.00e+00 2.35e-05  -9.0 1.74e-03    -  1.00e+00 1.00e+00h  1
 205  2.8603803e-03 0.00e+00 3.17e-05  -8.7 6.31e-03    -  1.00e+00 1.00e+00H  1
 206  2.8604558e-03 0.00e+00 4.86e-05  -9.3 3.01e-03    -  1.00e+00 1.00e+00H  1
 207  2.8603602e-03 0.00e+00 5.81e-05  -8.8 2.63e-03    -  1.00e+00 1.00e+00h  1
 208  2.8603388e-03 3.51e-04 6.82e-05  -8.9 1.51e-03    -  1.00e+00 1.00e+00h  1
 209  2.8603173e-03 1.13e-04 6.78e-06  -8.9 1.41e-03    -  1.00e+00 1.00e+00h  1
iter    objective    inf_pr   inf_du lg(mu)  ||d||  lg(rg) alpha_du alpha_pr  ls
 210  2.8603232e-03 0.00e+00 1.18e-05  -8.9 5.45e-04    -  1.00e+00 1.00e+00h  1
 211  2.8602959e-03 7.72e-06 3.35e-05 -10.3 1.02e-03    -  1.00e+00 1.00e+00h  1
 212  2.8602900e-03 5.63e-06 1.65e-05  -9.6 2.90e-04    -  1.00e+00 1.00e+00h  1
 213  2.8602818e-03 1.97e-07 1.45e-06 -10.9 3.58e-04    -  1.00e+00 1.00e+00h  1
 214  2.8602808e-03 0.00e+00 1.40e-06 -11.0 7.56e-04    -  1.00e+00 1.00e+00h  1
 215  2.8602813e-03 6.89e-07 1.85e-05  -9.4 9.52e-03    -  9.95e-01 2.19e-01h  1
 216  2.8602829e-03 0.00e+00 4.09e-05  -9.6 1.87e-01    -  1.00e+00 3.65e-02h  5
 217  2.8602804e-03 4.25e-05 3.42e-05  -9.6 7.56e-01    -  2.60e-01 1.69e-02h  4
 218  2.8617202e-03 1.26e-03 1.13e-03  -7.6 2.51e-01    -  1.12e-02 3.58e-01h  1
 219  2.8602948e-03 1.40e-03 1.11e-05  -8.6 9.16e-02    -  1.00e+00 1.00e+00h  1
iter    objective    inf_pr   inf_du lg(mu)  ||d||  lg(rg) alpha_du alpha_pr  ls
 220  2.8602690e-03 0.00e+00 4.18e-05  -8.6 9.11e-02    -  1.00e+00 1.00e+00h  1
 221  2.8603400e-03 1.30e-02 6.05e-05  -7.9 1.09e-01    -  1.18e-01 1.49e-01H  1
 222  2.8603085e-03 1.26e-03 1.13e-04  -8.6 3.98e-02    -  6.17e-01 1.00e+00h  1
 223  2.8602989e-03 1.26e-03 8.68e-05  -8.6 6.43e-02    -  4.86e-02 2.52e-03h  7
 224  2.8602730e-03 1.93e-03 3.53e-05  -8.6 5.92e-03    -  1.00e+00 6.04e-01h  1
 225  2.8603105e-03 9.12e-04 1.00e-04  -8.6 2.64e-02    -  6.95e-01 2.15e-01f  3
 226  2.8602859e-03 1.39e-04 6.13e-05  -8.6 2.36e-02    -  8.57e-01 1.00e+00h  1
 227  2.8602711e-03 1.94e-04 3.56e-05  -8.6 2.86e-01    -  6.72e-02 5.14e-03h  4
 228  2.8602913e-03 0.00e+00 4.02e-05  -8.6 1.84e-03    -  1.00e+00 1.00e+00h  1
 229  2.8602792e-03 0.00e+00 3.82e-05  -8.6 6.94e-03    -  1.00e+00 1.00e+00h  1
iter    objective    inf_pr   inf_du lg(mu)  ||d||  lg(rg) alpha_du alpha_pr  ls
 230  2.8604898e-03 0.00e+00 1.37e-04  -9.0 4.98e-03    -  1.00e+00 1.00e+00H  1
 231  2.8602726e-03 6.59e-05 9.31e-05  -9.1 2.02e-03    -  1.00e+00 1.00e+00h  1
 232  2.8602297e-03 9.53e-05 5.44e-05  -9.5 1.24e-03    -  1.00e+00 1.00e+00h  1
 233  2.8602004e-03 0.00e+00 1.62e-05 -10.4 9.00e-04    -  1.00e+00 1.00e+00h  1
 234  2.8602150e-03 0.00e+00 9.56e-06  -9.2 7.50e-04    -  1.00e+00 1.00e+00h  1
 235  2.8602154e-03 0.00e+00 3.42e-05  -9.3 6.02e-04    -  1.00e+00 1.00e+00h  1
 236  2.8601938e-03 8.55e-06 6.72e-06 -10.4 2.60e-04    -  1.00e+00 1.00e+00h  1
 237  2.8601926e-03 0.00e+00 1.27e-06 -10.5 9.27e-05    -  1.00e+00 1.00e+00h  1
 238  2.8601920e-03 7.72e-07 6.38e-06 -11.0 2.07e-04    -  1.00e+00 1.00e+00h  1
 239  2.8601916e-03 3.42e-07 9.53e-07 -11.0 1.58e-04    -  1.00e+00 1.00e+00h  1

Number of Iterations....: 239

                                   (scaled)                 (unscaled)
Objective...............:   2.8601916104760180e-03    2.8601916104760180e-03
Dual infeasibility......:   9.5282930188180237e-07    9.5282930188180237e-07
Constraint violation....:   3.1880898400385940e-07    3.4235265727351360e-07
Variable bound violation:   4.0618793661906238e-08    4.0618793661906238e-08
Complementarity.........:   1.0102686938857048e-11    1.0102686938857048e-11
Overall NLP error.......:   9.5282930188180237e-07    9.5282930188180237e-07


Number of objective function evaluations             = 469
Number of objective gradient evaluations             = 240
Number of equality constraint evaluations            = 0
Number of inequality constraint evaluations          = 469
Number of equality constraint Jacobian evaluations   = 0
Number of inequality constraint Jacobian evaluations = 240
Number of Lagrangian Hessian evaluations             = 0
Total seconds in IPOPT                               = 105.356

EXIT: Optimal Solution Found.
